NAME: rand_1/map3_480
TYPE: TSP
COMMENT: autogenerated using a wonderful map creator
DIMENSION: 600
EDGE_WEIGHT_TYPE: EUC_2D
NODE_COORD_SECTION
1 40.0 3.0
2 28.0 4.0
3 31.0 95.0
4 33.0 97.0
5 22.0 97.0
6 19.0 95.0
7 9.0 4.0
8 23.0 3.0
9 30.0 95.0
10 44.0 1.0
11 30.0 6.0
12 21.0 94.0
13 41.0 99.0
14 35.0 3.0
15 44.0 6.0
16 18.0 2.0
17 43.0 1.0
18 23.0 98.0
19 41.0 94.0
20 8.0 99.0
21 22.0 3.0
22 34.0 96.0
23 16.0 99.0
24 3.0 2.0
25 44.0 5.0
26 19.0 97.0
27 3.0 6.0
28 3.0 96.0
29 19.0 5.0
30 13.0 97.0
31 23.0 97.0
32 1.0 2.0
33 32.0 1.0
34 5.0 5.0
35 38.0 3.0
36 13.0 95.0
37 40.0 2.0
38 38.0 98.0
39 16.0 5.0
40 29.0 94.0
41 38.0 94.0
42 38.0 99.0
43 14.0 5.0
44 10.0 1.0
45 26.0 3.0
46 42.0 95.0
47 2.0 95.0
48 2.0 99.0
49 21.0 95.0
50 30.0 3.0
51 41.0 4.0
52 36.0 3.0
53 9.0 95.0
54 37.0 96.0
55 36.0 1.0
56 6.0 94.0
57 28.0 99.0
58 23.0 99.0
59 14.0 4.0
60 15.0 95.0
61 2.0 3.0
62 9.0 3.0
63 8.0 5.0
64 29.0 6.0
65 15.0 3.0
66 35.0 97.0
67 23.0 95.0
68 26.0 97.0
69 19.0 98.0
70 29.0 3.0
71 36.0 96.0
72 6.0 4.0
73 41.0 5.0
74 3.0 5.0
75 38.0 95.0
76 22.0 4.0
77 23.0 1.0
78 26.0 4.0
79 34.0 1.0
80 8.0 94.0
81 5.0 98.0
82 18.0 96.0
83 9.0 96.0
84 28.0 2.0
85 17.0 3.0
86 17.0 2.0
87 24.0 94.0
88 41.0 98.0
89 42.0 97.0
90 27.0 99.0
91 9.0 1.0
92 9.0 2.0
93 2.0 5.0
94 17.0 5.0
95 16.0 95.0
96 11.0 6.0
97 7.0 99.0
98 13.0 99.0
99 42.0 3.0
100 17.0 96.0
101 15.0 98.0
102 27.0 1.0
103 40.0 97.0
104 40.0 95.0
105 44.0 99.0
106 44.0 3.0
107 42.0 99.0
108 35.0 94.0
109 6.0 97.0
110 10.0 5.0
111 39.0 4.0
112 24.0 96.0
113 30.0 98.0
114 6.0 5.0
115 28.0 97.0
116 34.0 4.0
117 22.0 95.0
118 14.0 94.0
119 25.0 98.0
120 22.0 96.0
121 43.0 97.0
122 26.0 99.0
123 33.0 3.0
124 9.0 98.0
125 2.0 97.0
126 42.0 94.0
127 1.0 95.0
128 40.0 4.0
129 27.0 4.0
130 18.0 95.0
131 18.0 5.0
132 42.0 96.0
133 37.0 99.0
134 4.0 5.0
135 43.0 4.0
136 39.0 1.0
137 34.0 95.0
138 6.0 96.0
139 7.0 97.0
140 33.0 94.0
141 25.0 99.0
142 13.0 2.0
143 19.0 2.0
144 33.0 98.0
145 29.0 2.0
146 1.0 97.0
147 13.0 3.0
148 41.0 1.0
149 28.0 95.0
150 18.0 97.0
151 25.0 97.0
152 36.0 94.0
153 30.0 2.0
154 35.0 98.0
155 23.0 94.0
156 20.0 99.0
157 26.0 1.0
158 13.0 5.0
159 2.0 1.0
160 17.0 95.0
161 8.0 97.0
162 17.0 99.0
163 6.0 98.0
164 33.0 5.0
165 5.0 1.0
166 35.0 2.0
167 8.0 3.0
168 25.0 1.0
169 1.0 98.0
170 34.0 99.0
171 32.0 4.0
172 27.0 6.0
173 23.0 96.0
174 12.0 99.0
175 31.0 5.0
176 9.0 97.0
177 2.0 98.0
178 30.0 97.0
179 5.0 3.0
180 15.0 97.0
181 6.0 2.0
182 20.0 1.0
183 10.0 2.0
184 12.0 96.0
185 26.0 95.0
186 5.0 95.0
187 39.0 2.0
188 1.0 99.0
189 22.0 2.0
190 11.0 96.0
191 2.0 4.0
192 11.0 94.0
193 27.0 94.0
194 31.0 3.0
195 6.0 6.0
196 15.0 99.0
197 24.0 98.0
198 11.0 2.0
199 31.0 99.0
200 34.0 98.0
201 11.0 99.0
202 3.0 95.0
203 39.0 96.0
204 35.0 1.0
205 3.0 4.0
206 25.0 95.0
207 40.0 5.0
208 39.0 6.0
209 15.0 1.0
210 32.0 96.0
211 7.0 95.0
212 8.0 4.0
213 29.0 99.0
214 4.0 98.0
215 37.0 95.0
216 33.0 6.0
217 5.0 6.0
218 14.0 98.0
219 21.0 1.0
220 1.0 1.0
221 13.0 4.0
222 32.0 94.0
223 30.0 4.0
224 39.0 95.0
225 24.0 4.0
226 19.0 1.0
227 41.0 95.0
228 14.0 6.0
229 26.0 2.0
230 24.0 3.0
231 37.0 5.0
232 40.0 1.0
233 25.0 2.0
234 38.0 6.0
235 3.0 94.0
236 9.0 5.0
237 36.0 5.0
238 32.0 98.0
239 12.0 5.0
240 40.0 99.0
241 1.0 86.0
242 7.0 17.0
243 28.0 67.0
244 28.0 76.0
245 40.0 41.0
246 19.0 18.0
247 9.0 72.0
248 10.0 36.0
249 25.0 34.0
250 25.0 43.0
251 37.0 8.0
252 10.0 54.0
253 22.0 19.0
254 37.0 17.0
255 34.0 30.0
256 22.0 37.0
257 37.0 35.0
258 13.0 65.0
259 43.0 78.0
260 43.0 87.0
261 16.0 70.0
262 1.0 81.0
263 13.0 92.0
264 16.0 88.0
265 40.0 27.0
266 28.0 89.0
267 25.0 11.0
268 25.0 20.0
269 10.0 31.0
270 25.0 29.0
271 25.0 38.0
272 20.0 72.0
273 31.0 72.0
274 34.0 16.0
275 10.0 58.0
276 34.0 25.0
277 22.0 23.0
278 37.0 21.0
279 37.0 30.0
280 16.0 56.0
281 43.0 82.0
282 43.0 91.0
283 13.0 87.0
284 7.0 16.0
285 1.0 85.0
286 16.0 83.0
287 36.0 61.0
288 28.0 75.0
289 40.0 40.0
290 40.0 58.0
291 19.0 84.0
292 25.0 15.0
293 10.0 26.0
294 10.0 35.0
295 10.0 44.0
296 22.0 9.0
297 37.0 16.0
298 13.0 46.0
299 13.0 55.0
300 1.0 53.0
301 28.0 25.0
302 9.0 39.0
303 5.0 50.0
304 29.0 17.0
305 40.0 17.0
306 17.0 61.0
307 19.0 79.0
308 10.0 21.0
309 19.0 88.0
310 2.0 17.0
311 31.0 53.0
312 10.0 39.0
313 31.0 80.0
314 13.0 41.0
315 43.0 54.0
316 4.0 72.0
317 1.0 57.0
318 13.0 59.0
319 16.0 55.0
320 34.0 91.0
321 1.0 66.0
322 28.0 29.0
323 1.0 75.0
324 28.0 38.0
325 1.0 84.0
326 28.0 47.0
327 40.0 12.0
328 28.0 56.0
329 21.0 17.0
330 6.0 28.0
331 19.0 74.0
332 20.0 39.0
333 13.0 27.0
334 31.0 75.0
335 31.0 84.0
336 43.0 49.0
337 13.0 45.0
338 34.0 77.0
339 13.0 54.0
340 4.0 85.0
341 34.0 86.0
342 16.0 50.0
343 13.0 63.0
344 37.0 82.0
345 28.0 24.0
346 1.0 70.0
347 37.0 91.0
348 16.0 68.0
349 28.0 33.0
350 28.0 42.0
351 26.0 72.0
352 38.0 83.0
353 7.0 86.0
354 10.0 11.0
355 19.0 78.0
356 25.0 9.0
357 31.0 43.0
358 31.0 52.0
359 13.0 13.0
360 20.0 61.0
361 43.0 26.0
362 13.0 22.0
363 1.0 29.0
364 43.0 44.0
365 4.0 71.0
366 43.0 53.0
367 13.0 49.0
368 16.0 45.0
369 28.0 10.0
370 34.0 90.0
371 22.0 88.0
372 42.0 39.0
373 19.0 46.0
374 19.0 64.0
375 31.0 47.0
376 13.0 8.0
377 4.0 39.0
378 1.0 15.0
379 16.0 13.0
380 1.0 24.0
381 13.0 35.0
382 16.0 31.0
383 13.0 44.0
384 37.0 63.0
385 34.0 76.0
386 1.0 51.0
387 37.0 72.0
388 28.0 14.0
389 37.0 81.0
390 28.0 23.0
391 37.0 90.0
392 19.0 32.0
393 7.0 76.0
394 7.0 85.0
395 30.0 50.0
396 8.0 50.0
397 31.0 24.0
398 27.0 72.0
399 19.0 68.0
400 13.0 12.0
401 43.0 34.0
402 34.0 53.0
403 16.0 26.0
404 16.0 35.0
405 37.0 76.0
406 22.0 87.0
407 38.0 50.0
408 7.0 62.0
409 31.0 19.0
410 19.0 63.0
411 31.0 28.0
412 43.0 11.0
413 10.0 72.0
414 13.0 16.0
415 1.0 14.0
416 4.0 47.0
417 1.0 23.0
418 37.0 44.0
419 25.0 79.0
420 34.0 57.0
421 1.0 32.0
422 34.0 66.0
423 22.0 64.0
424 37.0 62.0
425 34.0 75.0
426 37.0 71.0
427 27.0 17.0
428 7.0 75.0
429 19.0 40.0
430 40.0 72.0
431 31.0 14.0
432 23.0 28.0
433 12.0 28.0
434 25.0 56.0
435 1.0 9.0
436 25.0 74.0
437 1.0 18.0
438 34.0 52.0
439 16.0 16.0
440 22.0 59.0
441 34.0 70.0
442 19.0 8.0
443 28.0 84.0
444 18.0 61.0
445 19.0 26.0
446 31.0 9.0
447 10.0 53.0
448 4.0 19.0
449 4.0 28.0
450 25.0 60.0
451 22.0 36.0
452 34.0 38.0
453 22.0 54.0
454 43.0 86.0
455 37.0 61.0
456 7.0 38.0
457 36.0 83.0
458 19.0 12.0
459 19.0 30.0
460 40.0 80.0
461 40.0 89.0
462 33.0 50.0
463 34.0 15.0
464 10.0 48.0
465 10.0 66.0
466 25.0 64.0
467 34.0 42.0
468 10.0 84.0
469 43.0 81.0
470 37.0 47.0
471 22.0 58.0
472 13.0 77.0
473 7.0 15.0
474 15.0 28.0
475 7.0 24.0
476 7.0 33.0
477 7.0 42.0
478 40.0 39.0
479 19.0 16.0
480 17.0 83.0
481 40.0 48.0
482 40.0 57.0
483 10.0 34.0
484 25.0 32.0
485 34.0 10.0
486 34.0 19.0
487 25.0 50.0
488 37.0 15.0
489 25.0 59.0
490 10.0 70.0
491 22.0 44.0
492 43.0 76.0
493 35.0 72.0
494 1.0 79.0
495 7.0 28.0
496 18.0 28.0
497 28.0 69.0
498 40.0 34.0
499 19.0 11.0
500 28.0 87.0
501 9.0 83.0
502 29.0 61.0
503 10.0 20.0
504 40.0 70.0
505 37.0 10.0
506 25.0 54.0
507 31.0 88.0
508 14.0 17.0
509 22.0 30.0
510 37.0 19.0
511 2.0 61.0
512 43.0 62.0
513 22.0 39.0
514 13.0 67.0
515 1.0 74.0
516 43.0 89.0
517 16.0 72.0
518 13.0 85.0
519 7.0 14.0
520 16.0 81.0
521 28.0 46.0
522 28.0 64.0
523 40.0 47.0
524 10.0 15.0
525 21.0 61.0
526 25.0 40.0
527 34.0 18.0
528 43.0 48.0
529 22.0 25.0
530 4.0 75.0
531 13.0 62.0
532 43.0 84.0
533 16.0 67.0
534 13.0 89.0
535 1.0 87.0
536 40.0 15.0
537 28.0 59.0
538 28.0 68.0
539 40.0 33.0
540 40.0 51.0
541 10.0 10.0
542 19.0 77.0
543 25.0 8.0
544 31.0 69.0
545 35.0 39.0
546 24.0 39.0
547 43.0 52.0
548 12.0 83.0
549 16.0 53.0
550 1.0 64.0
551 43.0 79.0
552 28.0 27.0
553 16.0 80.0
554 28.0 45.0
555 28.0 54.0
556 9.0 50.0
557 5.0 61.0
558 40.0 28.0
559 29.0 28.0
560 7.0 89.0
561 19.0 72.0
562 10.0 14.0
563 42.0 83.0
564 31.0 46.0
565 25.0 12.0
566 19.0 90.0
567 25.0 21.0
568 31.0 73.0
569 4.0 65.0
570 43.0 47.0
571 4.0 83.0
572 16.0 48.0
573 28.0 13.0
574 1.0 59.0
575 24.0 61.0
576 16.0 57.0
577 37.0 89.0
578 28.0 31.0
579 7.0 84.0
580 10.0 9.0
581 20.0 50.0
582 43.0 15.0
583 31.0 59.0
584 4.0 60.0
585 43.0 51.0
586 16.0 34.0
587 1.0 45.0
588 4.0 78.0
589 28.0 8.0
590 1.0 54.0
591 22.0 86.0
592 16.0 52.0
593 1.0 63.0
594 37.0 84.0
595 36.0 39.0
596 28.0 35.0
597 7.0 70.0
598 15.0 83.0
599 19.0 53.0
600 31.0 27.0
601 19.0 80.0
602 31.0 54.0
603 43.0 19.0
604 4.0 46.0
605 32.0 28.0
606 1.0 22.0
607 1.0 31.0
608 13.0 33.0
609 13.0 42.0
610 16.0 38.0
611 1.0 49.0
612 37.0 70.0
613 22.0 90.0
614 28.0 21.0
615 34.0 92.0
616 28.0 30.0
617 7.0 65.0
618 7.0 74.0
619 30.0 39.0
620 19.0 39.0
621 39.0 17.0
622 18.0 83.0
623 19.0 66.0
624 31.0 40.0
625 43.0 14.0
626 4.0 50.0
627 34.0 60.0
628 25.0 91.0
629 1.0 35.0
630 37.0 65.0
631 34.0 78.0
632 37.0 74.0
633 28.0 16.0
634 7.0 69.0
635 7.0 78.0
636 20.0 17.0
637 19.0 61.0
638 39.0 39.0
639 33.0 72.0
640 13.0 14.0
641 10.0 79.0
642 34.0 46.0
643 16.0 10.0
644 13.0 23.0
645 4.0 45.0
646 1.0 30.0
647 22.0 62.0
648 16.0 28.0
649 1.0 39.0
650 34.0 73.0
651 28.0 11.0
652 37.0 78.0
653 15.0 50.0
654 26.0 50.0
655 38.0 61.0
656 7.0 64.0
657 19.0 29.0
658 19.0 38.0
659 19.0 47.0
660 40.0 79.0
661 19.0 56.0
662 12.0 17.0
663 11.0 61.0
664 4.0 31.0
665 34.0 32.0
666 25.0 63.0
667 4.0 40.0
668 10.0 74.0
669 13.0 18.0
670 25.0 72.0
671 34.0 59.0
672 22.0 66.0
673 34.0 68.0
674 37.0 73.0
675 19.0 24.0
676 6.0 72.0
677 40.0 74.0
678 4.0 17.0
679 34.0 27.0
680 25.0 58.0
681 10.0 69.0
682 22.0 43.0
683 3.0 39.0
684 37.0 41.0
685 22.0 52.0
686 10.0 87.0
687 34.0 54.0
688 37.0 59.0
689 7.0 18.0
690 36.0 72.0
691 40.0 60.0
692 40.0 78.0
693 33.0 39.0
694 4.0 21.0
695 10.0 55.0
696 37.0 18.0
697 34.0 31.0
698 22.0 38.0
699 34.0 40.0
700 37.0 36.0
701 10.0 82.0
702 37.0 54.0
703 22.0 65.0
704 7.0 13.0
705 38.0 28.0
706 7.0 31.0
707 17.0 72.0
708 28.0 81.0
709 19.0 23.0
710 28.0 90.0
711 25.0 30.0
712 4.0 16.0
713 22.0 15.0
714 34.0 17.0
715 37.0 13.0
716 33.0 61.0
717 22.0 33.0
718 25.0 66.0
719 43.0 74.0
720 13.0 79.0
START_DEPOT_SECTION
1
2
3
4
5
6
7
8
9
10
11
12
13
14
15
16
17
18
19
20
21
22
23
24
25
26
27
28
29
30
31
32
33
34
35
36
37
38
39
40
41
42
43
44
45
46
47
48
49
50
51
52
53
54
55
56
57
58
59
60
61
62
63
64
65
66
67
68
69
70
71
72
73
74
75
76
77
78
79
80
81
82
83
84
85
86
87
88
89
90
91
92
93
94
95
96
97
98
99
100
101
102
103
104
105
106
107
108
109
110
111
112
113
114
115
116
117
118
119
120
-1
END_DEPOT_SECTION
121
122
123
124
125
126
127
128
129
130
131
132
133
134
135
136
137
138
139
140
141
142
143
144
145
146
147
148
149
150
151
152
153
154
155
156
157
158
159
160
161
162
163
164
165
166
167
168
169
170
171
172
173
174
175
176
177
178
179
180
181
182
183
184
185
186
187
188
189
190
191
192
193
194
195
196
197
198
199
200
201
202
203
204
205
206
207
208
209
210
211
212
213
214
215
216
217
218
219
220
221
222
223
224
225
226
227
228
229
230
231
232
233
234
235
236
237
238
239
240
-1
EOF
